NB_PERIODS = 50;
NB_VENUES = 6;
GAME_DURATION = 60;
NB_GAMES = 60;
NB_TEAMS = 30;
NB_DIVISIONS = 6;
NB_TEAMS_PER_DIVISION = [5, 5, 5, 5, 5, 5];
VENUE_AVAILABILITIES = [|false, true,false,false, true,false, true, true, true,false, true,false,
   true,false, true,false, true, true, true, true,false,false, true,false,
   true,false,false, true, true,false, true, true,false, true, true, true,
   true, true,false, true, true,false,false,false, true,false,false, true,
   true, true
 | true, true, true,false,false,false, true,false,false, true,false, true,
  false, true,false,false,false, true,false,false,false,false,false,false,
   true, true,false,false, true,false,false,false,false, true,false,false,
   true, true,false,false, true,false, true, true,false, true,false,false,
   true,false
 |false,false,false,false, true, true, true,false, true,false, true, true,
  false,false, true, true,false, true,false,false,false, true, true,false,
  false,false, true,false, true,false,false,false, true, true,false,false,
   true,false, true, true, true, true,false, true,false, true,false,false,
  false,false
 | true, true,false,false,false,false, true,false,false,false, true,false,
   true, true, true,false, true,false, true,false, true,false,false,false,
  false, true, true,false,false, true,false, true,false,false, true, true,
  false, true, true,false,false, true,false,false, true,false, true, true,
   true,false
 | true,false, true, true, true, true,false, true, true,false,false, true,
   true,false, true, true,false,false,false, true, true,false,false, true,
  false,false, true, true, true,false,false,false, true, true,false, true,
  false, true,false, true,false, true, true, true, true,false, true, true,
   true,false
 |false, true,false, true, true,false,false,false,false, true, true, true,
   true, true,false, true,false,false,false, true, true,false,false,false,
   true,false,false,false,false, true,false,false,false, true,false, true,
   true, true,false, true, true, true,false,false, true,false, true,false,
  false, true|];
GAMES_TO_SCHEDULE = [|div_1_team_1,div_1_team_2
 |div_1_team_1,div_1_team_3
 |div_1_team_1,div_1_team_4
 |div_1_team_1,div_1_team_5
 |div_1_team_2,div_1_team_3
 |div_1_team_2,div_1_team_4
 |div_1_team_2,div_1_team_5
 |div_1_team_3,div_1_team_4
 |div_1_team_3,div_1_team_5
 |div_1_team_4,div_1_team_5
 |div_2_team_1,div_2_team_2
 |div_2_team_1,div_2_team_3
 |div_2_team_1,div_2_team_4
 |div_2_team_1,div_2_team_5
 |div_2_team_2,div_2_team_3
 |div_2_team_2,div_2_team_4
 |div_2_team_2,div_2_team_5
 |div_2_team_3,div_2_team_4
 |div_2_team_3,div_2_team_5
 |div_2_team_4,div_2_team_5
 |div_3_team_1,div_3_team_2
 |div_3_team_1,div_3_team_3
 |div_3_team_1,div_3_team_4
 |div_3_team_1,div_3_team_5
 |div_3_team_2,div_3_team_3
 |div_3_team_2,div_3_team_4
 |div_3_team_2,div_3_team_5
 |div_3_team_3,div_3_team_4
 |div_3_team_3,div_3_team_5
 |div_3_team_4,div_3_team_5
 |div_4_team_1,div_4_team_2
 |div_4_team_1,div_4_team_3
 |div_4_team_1,div_4_team_4
 |div_4_team_1,div_4_team_5
 |div_4_team_2,div_4_team_3
 |div_4_team_2,div_4_team_4
 |div_4_team_2,div_4_team_5
 |div_4_team_3,div_4_team_4
 |div_4_team_3,div_4_team_5
 |div_4_team_4,div_4_team_5
 |div_5_team_1,div_5_team_2
 |div_5_team_1,div_5_team_3
 |div_5_team_1,div_5_team_4
 |div_5_team_1,div_5_team_5
 |div_5_team_2,div_5_team_3
 |div_5_team_2,div_5_team_4
 |div_5_team_2,div_5_team_5
 |div_5_team_3,div_5_team_4
 |div_5_team_3,div_5_team_5
 |div_5_team_4,div_5_team_5
 |div_6_team_1,div_6_team_2
 |div_6_team_1,div_6_team_3
 |div_6_team_1,div_6_team_4
 |div_6_team_1,div_6_team_5
 |div_6_team_2,div_6_team_3
 |div_6_team_2,div_6_team_4
 |div_6_team_2,div_6_team_5
 |div_6_team_3,div_6_team_4
 |div_6_team_3,div_6_team_5
 |div_6_team_4,div_6_team_5|];
TEAM_NAMES = {div_1_team_1, div_1_team_2, div_1_team_3, div_1_team_4, div_1_team_5, div_2_team_1, div_2_team_2, div_2_team_3, div_2_team_4, div_2_team_5, div_3_team_1, div_3_team_2, div_3_team_3, div_3_team_4, div_3_team_5, div_4_team_1, div_4_team_2, div_4_team_3, div_4_team_4, div_4_team_5, div_5_team_1, div_5_team_2, div_5_team_3, div_5_team_4, div_5_team_5, div_6_team_1, div_6_team_2, div_6_team_3, div_6_team_4, div_6_team_5};
TEAMS_TIME_PREFERENCES = array2d(TEAM_NAMES, periods, [0,4,0,...,0,0,0,
3,0,5,...,0,0,0,
0,2,0,...,0,0,0,
...
0,0,2,...,0,0,0,
1,0,0,...,0,0,5,
0,0,0,...,0,0,0]);
COACH_NAMES = {Coach_1, Coach_2, Coach_3, Coach_4, Coach_5};
COACHES_BY_TEAM = array1d(TEAM_NAMES, [Coach_1, Coach_2, Coach_3, Coach_4, Coach_5, Coach_5, Coach_1, Coach_1, Coach_5, Coach_2, Coach_5, Coach_2, Coach_4, Coach_2, Coach_3, Coach_2, Coach_4, Coach_4, Coach_5, Coach_5, Coach_4, Coach_3, Coach_3, Coach_5, Coach_3, Coach_5, Coach_4, Coach_2, Coach_3, Coach_2]);
